letting n =  10
letting blocks =  [[1, 2], [1, 3], [1, 4], [1, 7], [1, 8], [2, 2], [2, 7], [2, 10], [3, 1], [3, 3], [3, 4], [3, 7], [3, 9], [3, 10], [4, 2], [4, 4], [4, 6], [4, 7], [4, 9], [4, 10], [5, 1], [5, 2], [5, 3], [5, 7], [5, 8], [5, 10], [6, 2], [6, 3], [6, 5], [6, 6], [7, 2], [7, 4], [7, 8], [7, 9], [7, 10], [8, 3], [8, 5], [8, 7], [8, 8], [8, 9], [8, 10], [9, 1], [9, 3], [9, 4], [9, 6], [9, 9], [10, 1], [10, 5], [10, 8], [10, 9]]
